data/ILP/exact/instance068.lp
Minimize
obj: 1y_1 + 5y_2 + 6y_3 + 1y_4 + 100000y_5 + 100000y_6 + 6y_7 + 5y_8 + 1y_9 + 100000y_10 + 1y_11 + 5y_12 + 100000y_13 + 1y_14 + 1y_15 + 7y_16 + 6y_17 + 100000y_18 + 1y_19 + 5y_20 + 100000y_21 + 1y_22 + 1y_23 + 5y_24 + 1y_25 + 6y_26 + 100000y_27 + 5y_28 + 1y_29 + 100000y_30 + 6y_31 + 5y_32 + 1y_33 + 100000y_34 + 1y_35 + 7y_36 + 1y_37 + 1y_38 + 7y_39 + 100000y_40 + 6y_41 + 100000y_42 + 5y_43 + 1y_44 + 6y_45 + 1y_46 + 6y_47 + 5y_48 + 100000y_49 + 1y_50 + 100000y_51 + 7y_52 + 6y_53 + 1y_54 + 5y_55 + 1y_56 + 100000y_57 + 1y_58 + 7y_59 + 1y_60 + 5y_61 + 6y_62 + 100000y_63 + 6y_64 + 1y_65 + 5y_66 + 100000y_67 + 1y_68 + 100000y_69 + 1y_70 + 7y_71 + 5y_72 + 100000y_73 + 7y_74 + 1y_75 + 6y_76 + 1y_77 + 5y_78 + 100000y_79 + 6y_80 + 1y_81 + 1y_82 + 100000y_83 + 6y_84 + 5y_85 + 6y_86 + 7y_87 + 100000y_88 + 1y_89 + 1y_90 + 7y_91 + 1y_92 + 1y_93 + 100000y_94 + 5y_95 + 1y_96 + 100000y_97 + 5y_98 + 6y_99 + 5y_100 + 100000y_101 + 6y_102 + 1y_103 + 100000y_104 + 5y_105 + 1y_106 + 1y_107 + 7y_108 + 100000y_109 + 1y_110 + 6y_111 + 1y_112 + 100000y_113 + 6y_114 + 5y_115 + 100000y_116 + 1y_117 + 6y_118 + 100000y_119 + 1y_120 + 17y_121 + 1y_122 + 100000y_123 + 17y_124 + 17y_125 + 100000y_126 + 16y_127 + 1y_128 + 1y_129 + 17y_130 + 16y_131 + 100000y_132 + 100000y_133 + 16y_134 + 17y_135 + 1y_136 + 58y_137 + 16y_138 + 100000y_139 + 17y_140 + 100000y_141 + 17y_142 + 17y_143 + 100000y_144 + 1y_145 + 100000y_146 + 34y_147 + 5y_148 + 58y_149 + 1y_150 + 5y_151 + 1y_152 + 1y_153 + 6y_154 + 1y_155 + 7y_156 + 6y_157 + 7y_158 + 1y_159 + 6y_160 + 1y_161 + 6y_162 + 7y_163 + 7y_164 + 1y_165 + 6y_166 + 6y_167 + 1y_168 + 1y_169 + 5y_170 + 5y_171 + 1y_172 + 7y_173 + 5y_174 + 1y_175 + 7y_176 + 5y_177 + 1y_178 + 7y_179 + 1y_180 + 7y_181 + 5y_182 + 1y_183 + 5y_184 + 6y_185 + 1y_186 + 7y_187 + 6y_188 + 1y_189 + 7y_190 + 6y_191 + 1y_192 + 1y_193 + 7y_194 + 6y_195 + 7y_196 + 6y_197 + 1y_198 + 1y_199 + 5y_200 + 6y_201 + 1y_202 + 1y_203 + 5y_204 + 7y_205 + 7y_206 + 5y_207 + 1y_208 + 1y_209 + 7y_210 + 5y_211 + 7y_212 + 1y_213 + 5y_214 + 5y_215 + 1y_216 + 1y_217 + 6y_218 + 1y_219 + 7y_220 + 6y_221 + 1y_222 + 6y_223 + 7y_224 + 1y_225 + 6y_226 + 7y_227 + 1y_228 + 7y_229 + 6y_230 + 1y_231 + 1y_232 + 5y_233 + 6y_234 + 5y_235 + 1y_236 + 1y_237 + 1y_238 + 6y_239 + 1y_240 + 34y_241 + 1y_242 + 5y_243 + 1y_244 + 1y_245 + 6y_246 + 1y_247 + 1y_248 + 6y_249 + 1y_250 + 1y_251 + 1y_252 + 5y_253 + 6y_254 + 6y_255 + 5y_256 + 1y_257 + 1y_258 + 1y_259 + 5y_260 + 6y_261 + 100000y_262 + 100000y_263 + 100000y_264 + 100000y_265 + 100000y_266 + 100000y_267 + 100000y_268 + 100000y_269 + 100000y_270 + 100000y_271 + 100000y_272 + 100000y_273 + 100000y_274 + 100000y_275 + 100000y_276 + 100000y_277 + 100000y_278 + 100000y_279 + 100000y_280 + 100000y_281 + 100000y_282 + 100000y_283 + 100000y_284 + 100000y_285 + 100000y_286 + 100000y_287 + 100000y_288 + 100000y_289 + 100000y_290 + 100000y_291 + 100000y_292 + 100000y_293 + 100000y_294 + 100000y_295 + 100000y_296 + 100000y_297 + 100000y_298
Subject To
x_299 = 11
x_304 = 1
x_305 = 1
x_306 = 1
x_307 = 1
x_308 = 1
x_309 = 1
x_310 = 1
x_300 = 1
x_301 = 1
x_302 = 1
x_303 = 1
x_1 - 12y_1 <= 0
x_2 - 12y_2 <= 0
x_3 - 12y_3 <= 0
x_4 - 12y_4 <= 0
x_5 - 12y_5 <= 0
x_6 - 12y_6 <= 0
x_7 - 12y_7 <= 0
x_8 - 12y_8 <= 0
x_9 - 12y_9 <= 0
x_10 - 12y_10 <= 0
x_11 - 12y_11 <= 0
x_12 - 12y_12 <= 0
x_13 - 12y_13 <= 0
x_14 - 12y_14 <= 0
x_15 - 12y_15 <= 0
x_16 - 12y_16 <= 0
x_17 - 12y_17 <= 0
x_18 - 12y_18 <= 0
x_19 - 12y_19 <= 0
x_20 - 12y_20 <= 0
x_21 - 12y_21 <= 0
x_22 - 12y_22 <= 0
x_23 - 12y_23 <= 0
x_24 - 12y_24 <= 0
x_25 - 12y_25 <= 0
x_26 - 12y_26 <= 0
x_27 - 12y_27 <= 0
x_28 - 12y_28 <= 0
x_29 - 12y_29 <= 0
x_30 - 12y_30 <= 0
x_31 - 12y_31 <= 0
x_32 - 12y_32 <= 0
x_33 - 12y_33 <= 0
x_34 - 12y_34 <= 0
x_35 - 12y_35 <= 0
x_36 - 12y_36 <= 0
x_37 - 12y_37 <= 0
x_38 - 12y_38 <= 0
x_39 - 12y_39 <= 0
x_40 - 12y_40 <= 0
x_41 - 12y_41 <= 0
x_42 - 12y_42 <= 0
x_43 - 12y_43 <= 0
x_44 - 12y_44 <= 0
x_45 - 12y_45 <= 0
x_46 - 12y_46 <= 0
x_47 - 12y_47 <= 0
x_48 - 12y_48 <= 0
x_49 - 12y_49 <= 0
x_50 - 12y_50 <= 0
x_51 - 12y_51 <= 0
x_52 - 12y_52 <= 0
x_53 - 12y_53 <= 0
x_54 - 12y_54 <= 0
x_55 - 12y_55 <= 0
x_56 - 12y_56 <= 0
x_57 - 12y_57 <= 0
x_58 - 12y_58 <= 0
x_59 - 12y_59 <= 0
x_60 - 12y_60 <= 0
x_61 - 12y_61 <= 0
x_62 - 12y_62 <= 0
x_63 - 12y_63 <= 0
x_64 - 12y_64 <= 0
x_65 - 12y_65 <= 0
x_66 - 12y_66 <= 0
x_67 - 12y_67 <= 0
x_68 - 12y_68 <= 0
x_69 - 12y_69 <= 0
x_70 - 12y_70 <= 0
x_71 - 12y_71 <= 0
x_72 - 12y_72 <= 0
x_73 - 12y_73 <= 0
x_74 - 12y_74 <= 0
x_75 - 12y_75 <= 0
x_76 - 12y_76 <= 0
x_77 - 12y_77 <= 0
x_78 - 12y_78 <= 0
x_79 - 12y_79 <= 0
x_80 - 12y_80 <= 0
x_81 - 12y_81 <= 0
x_82 - 12y_82 <= 0
x_83 - 12y_83 <= 0
x_84 - 12y_84 <= 0
x_85 - 12y_85 <= 0
x_86 - 12y_86 <= 0
x_87 - 12y_87 <= 0
x_88 - 12y_88 <= 0
x_89 - 12y_89 <= 0
x_90 - 12y_90 <= 0
x_91 - 12y_91 <= 0
x_92 - 12y_92 <= 0
x_93 - 12y_93 <= 0
x_94 - 12y_94 <= 0
x_95 - 12y_95 <= 0
x_96 - 12y_96 <= 0
x_97 - 12y_97 <= 0
x_98 - 12y_98 <= 0
x_99 - 12y_99 <= 0
x_100 - 12y_100 <= 0
x_101 - 12y_101 <= 0
x_102 - 12y_102 <= 0
x_103 - 12y_103 <= 0
x_104 - 12y_104 <= 0
x_105 - 12y_105 <= 0
x_106 - 12y_106 <= 0
x_107 - 12y_107 <= 0
x_108 - 12y_108 <= 0
x_109 - 12y_109 <= 0
x_110 - 12y_110 <= 0
x_111 - 12y_111 <= 0
x_112 - 12y_112 <= 0
x_113 - 12y_113 <= 0
x_114 - 12y_114 <= 0
x_115 - 12y_115 <= 0
x_116 - 12y_116 <= 0
x_117 - 12y_117 <= 0
x_118 - 12y_118 <= 0
x_119 - 12y_119 <= 0
x_120 - 12y_120 <= 0
x_121 - 12y_121 <= 0
x_122 - 12y_122 <= 0
x_123 - 12y_123 <= 0
x_124 - 12y_124 <= 0
x_125 - 12y_125 <= 0
x_126 - 12y_126 <= 0
x_127 - 12y_127 <= 0
x_128 - 12y_128 <= 0
x_129 - 12y_129 <= 0
x_130 - 12y_130 <= 0
x_131 - 12y_131 <= 0
x_132 - 12y_132 <= 0
x_133 - 12y_133 <= 0
x_134 - 12y_134 <= 0
x_135 - 12y_135 <= 0
x_136 - 12y_136 <= 0
x_137 - 12y_137 <= 0
x_138 - 12y_138 <= 0
x_139 - 12y_139 <= 0
x_140 - 12y_140 <= 0
x_141 - 12y_141 <= 0
x_142 - 12y_142 <= 0
x_143 - 12y_143 <= 0
x_144 - 12y_144 <= 0
x_145 - 12y_145 <= 0
x_146 - 12y_146 <= 0
x_147 - 12y_147 <= 0
x_148 - 12y_148 <= 0
x_149 - 12y_149 <= 0
x_150 - 12y_150 <= 0
x_151 - 12y_151 <= 0
x_152 - 12y_152 <= 0
x_153 - 12y_153 <= 0
x_154 - 12y_154 <= 0
x_155 - 12y_155 <= 0
x_156 - 12y_156 <= 0
x_157 - 12y_157 <= 0
x_158 - 12y_158 <= 0
x_159 - 12y_159 <= 0
x_160 - 12y_160 <= 0
x_161 - 12y_161 <= 0
x_162 - 12y_162 <= 0
x_163 - 12y_163 <= 0
x_164 - 12y_164 <= 0
x_165 - 12y_165 <= 0
x_166 - 12y_166 <= 0
x_167 - 12y_167 <= 0
x_168 - 12y_168 <= 0
x_169 - 12y_169 <= 0
x_170 - 12y_170 <= 0
x_171 - 12y_171 <= 0
x_172 - 12y_172 <= 0
x_173 - 12y_173 <= 0
x_174 - 12y_174 <= 0
x_175 - 12y_175 <= 0
x_176 - 12y_176 <= 0
x_177 - 12y_177 <= 0
x_178 - 12y_178 <= 0
x_179 - 12y_179 <= 0
x_180 - 12y_180 <= 0
x_181 - 12y_181 <= 0
x_182 - 12y_182 <= 0
x_183 - 12y_183 <= 0
x_184 - 12y_184 <= 0
x_185 - 12y_185 <= 0
x_186 - 12y_186 <= 0
x_187 - 12y_187 <= 0
x_188 - 12y_188 <= 0
x_189 - 12y_189 <= 0
x_190 - 12y_190 <= 0
x_191 - 12y_191 <= 0
x_192 - 12y_192 <= 0
x_193 - 12y_193 <= 0
x_194 - 12y_194 <= 0
x_195 - 12y_195 <= 0
x_196 - 12y_196 <= 0
x_197 - 12y_197 <= 0
x_198 - 12y_198 <= 0
x_199 - 12y_199 <= 0
x_200 - 12y_200 <= 0
x_201 - 12y_201 <= 0
x_202 - 12y_202 <= 0
x_203 - 12y_203 <= 0
x_204 - 12y_204 <= 0
x_205 - 12y_205 <= 0
x_206 - 12y_206 <= 0
x_207 - 12y_207 <= 0
x_208 - 12y_208 <= 0
x_209 - 12y_209 <= 0
x_210 - 12y_210 <= 0
x_211 - 12y_211 <= 0
x_212 - 12y_212 <= 0
x_213 - 12y_213 <= 0
x_214 - 12y_214 <= 0
x_215 - 12y_215 <= 0
x_216 - 12y_216 <= 0
x_217 - 12y_217 <= 0
x_218 - 12y_218 <= 0
x_219 - 12y_219 <= 0
x_220 - 12y_220 <= 0
x_221 - 12y_221 <= 0
x_222 - 12y_222 <= 0
x_223 - 12y_223 <= 0
x_224 - 12y_224 <= 0
x_225 - 12y_225 <= 0
x_226 - 12y_226 <= 0
x_227 - 12y_227 <= 0
x_228 - 12y_228 <= 0
x_229 - 12y_229 <= 0
x_230 - 12y_230 <= 0
x_231 - 12y_231 <= 0
x_232 - 12y_232 <= 0
x_233 - 12y_233 <= 0
x_234 - 12y_234 <= 0
x_235 - 12y_235 <= 0
x_236 - 12y_236 <= 0
x_237 - 12y_237 <= 0
x_238 - 12y_238 <= 0
x_239 - 12y_239 <= 0
x_240 - 12y_240 <= 0
x_241 - 12y_241 <= 0
x_242 - 12y_242 <= 0
x_243 - 12y_243 <= 0
x_244 - 12y_244 <= 0
x_245 - 12y_245 <= 0
x_246 - 12y_246 <= 0
x_247 - 12y_247 <= 0
x_248 - 12y_248 <= 0
x_249 - 12y_249 <= 0
x_250 - 12y_250 <= 0
x_251 - 12y_251 <= 0
x_252 - 12y_252 <= 0
x_253 - 12y_253 <= 0
x_254 - 12y_254 <= 0
x_255 - 12y_255 <= 0
x_256 - 12y_256 <= 0
x_257 - 12y_257 <= 0
x_258 - 12y_258 <= 0
x_259 - 12y_259 <= 0
x_260 - 12y_260 <= 0
x_261 - 12y_261 <= 0
x_262 - 12y_262 <= 0
x_263 - 12y_263 <= 0
x_264 - 12y_264 <= 0
x_265 - 12y_265 <= 0
x_266 - 12y_266 <= 0
x_267 - 12y_267 <= 0
x_268 - 12y_268 <= 0
x_269 - 12y_269 <= 0
x_270 - 12y_270 <= 0
x_271 - 12y_271 <= 0
x_272 - 12y_272 <= 0
x_273 - 12y_273 <= 0
x_274 - 12y_274 <= 0
x_275 - 12y_275 <= 0
x_276 - 12y_276 <= 0
x_277 - 12y_277 <= 0
x_278 - 12y_278 <= 0
x_279 - 12y_279 <= 0
x_280 - 12y_280 <= 0
x_281 - 12y_281 <= 0
x_282 - 12y_282 <= 0
x_283 - 12y_283 <= 0
x_284 - 12y_284 <= 0
x_285 - 12y_285 <= 0
x_286 - 12y_286 <= 0
x_287 - 12y_287 <= 0
x_288 - 12y_288 <= 0
x_289 - 12y_289 <= 0
x_290 - 12y_290 <= 0
x_291 - 12y_291 <= 0
x_292 - 12y_292 <= 0
x_293 - 12y_293 <= 0
x_294 - 12y_294 <= 0
x_295 - 12y_295 <= 0
x_296 - 12y_296 <= 0
x_297 - 12y_297 <= 0
x_298 - 12y_298 <= 0
x_3 - x_246 +  x_1 - x_252 +  x_2 - x_260 +  x_4 - x_257 +  x_5 - x_264 = 0
x_7 - x_261 +  x_6 - x_263 = 0
x_9 - x_258 +  x_10 - x_262 +  x_8 - x_253 = 0
x_12 - x_256 +  x_11 - x_259 +  x_13 - x_265 = 0
x_18 - x_269 +  x_17 - x_234 +  x_14 - x_225 +  x_15 - x_228 +  x_16 - x_39 = 0
x_20 - x_233 +  x_19 - x_242 +  x_21 - x_266 +  x_22 - x_237 +  x_23 - x_247 = 0
x_25 - x_231 +  x_26 - x_226 +  x_24 - x_235 +  x_27 - x_268 = 0
x_31 - x_230 +  x_29 - x_232 +  x_28 - x_243 +  x_30 - x_267 = 0
x_32 - x_215 +  x_33 - x_209 +  x_36 - x_59 +  x_34 - x_270 +  x_35 - x_213 = 0
x_37 - x_222 +  x_41 - x_218 +  x_40 - x_273 +  x_39 - x_16 +  x_38 - x_219 = 0
x_42 - x_271 +  x_45 - x_221 +  x_43 - x_211 +  x_44 - x_217 = 0
x_47 - x_223 +  x_49 - x_272 +  x_46 - x_216 +  x_48 - x_214 = 0
x_54 - x_198 +  x_52 - x_74 +  x_53 - x_201 +  x_51 - x_274 +  x_50 - x_193 = 0
x_59 - x_36 +  x_57 - x_275 +  x_55 - x_200 +  x_56 - x_203 +  x_58 - x_208 = 0
x_62 - x_195 +  x_60 - x_199 +  x_61 - x_204 +  x_63 - x_277 = 0
x_64 - x_197 +  x_66 - x_207 +  x_65 - x_202 +  x_67 - x_276 = 0
x_72 - x_184 +  x_69 - x_278 +  x_71 - x_91 +  x_70 - x_178 +  x_68 - x_180 = 0
x_74 - x_52 +  x_77 - x_192 +  x_76 - x_185 +  x_73 - x_279 +  x_75 - x_189 = 0
x_79 - x_281 +  x_81 - x_186 +  x_78 - x_177 +  x_80 - x_188 = 0
x_84 - x_191 +  x_82 - x_183 +  x_83 - x_280 +  x_85 - x_182 = 0
x_90 - x_165 +  x_87 - x_108 +  x_88 - x_283 +  x_86 - x_167 +  x_89 - x_161 = 0
x_93 - x_172 +  x_94 - x_285 +  x_92 - x_175 +  x_91 - x_71 +  x_95 - x_170 = 0
x_96 - x_168 +  x_97 - x_282 +  x_99 - x_162 +  x_98 - x_171 = 0
x_101 - x_284 +  x_100 - x_174 +  x_102 - x_166 +  x_103 - x_169 = 0
x_106 - x_150 +  x_105 - x_151 +  x_104 - x_286 = 0
x_107 - x_155 +  x_108 - x_87 +  x_111 - x_154 +  x_109 - x_287 +  x_110 - x_159 = 0
x_113 - x_289 +  x_112 - x_152 +  x_114 - x_157 = 0
x_118 - x_160 +  x_117 - x_153 +  x_115 - x_148 +  x_116 - x_288 = 0
x_121 - x_124 +  x_120 - x_128 +  x_119 - x_290 = 0
x_123 - x_291 +  x_122 - x_129 +  x_124 - x_121 = 0
x_126 - x_292 +  x_128 - x_120 +  x_127 - x_134 +  x_125 - x_130 = 0
x_131 - x_138 +  x_129 - x_122 +  x_130 - x_125 +  x_132 - x_293 = 0
x_135 - x_140 +  x_136 - x_145 +  x_133 - x_294 +  x_134 - x_127 = 0
x_140 - x_135 +  x_137 - x_149 +  x_138 - x_131 +  x_139 - x_295 = 0
x_141 - x_296 +  x_142 - x_143 = 0
x_143 - x_142 +  x_145 - x_136 +  x_144 - x_297 = 0
x_146 - x_298 +  x_147 - x_241 = 0
x_149 - x_137 +  x_148 - x_115 +  x_150 - x_106 = 0
x_153 - x_117 +  x_154 - x_111 +  x_151 - x_105 +  x_152 - x_112 = 0
x_155 - x_107 +  x_156 - x_163 +  x_157 - x_114 = 0
x_159 - x_110 +  x_160 - x_118 +  x_158 - x_164 = 0
x_163 - x_156 +  x_161 - x_89 +  x_162 - x_99 = 0
x_164 - x_158 +  x_165 - x_90 +  x_166 - x_102 = 0
x_169 - x_103 +  x_168 - x_96 +  x_170 - x_95 +  x_167 - x_86 = 0
x_173 - x_179 +  x_171 - x_98 +  x_172 - x_93 = 0
x_174 - x_100 +  x_175 - x_92 +  x_176 - x_181 = 0
x_177 - x_78 +  x_179 - x_173 +  x_178 - x_70 = 0
x_181 - x_176 +  x_182 - x_85 +  x_180 - x_68 = 0
x_184 - x_72 +  x_183 - x_82 +  x_186 - x_81 +  x_185 - x_76 = 0
x_189 - x_75 +  x_188 - x_80 +  x_187 - x_194 = 0
x_191 - x_84 +  x_190 - x_196 +  x_192 - x_77 = 0
x_194 - x_187 +  x_195 - x_62 +  x_193 - x_50 = 0
x_198 - x_54 +  x_197 - x_64 +  x_196 - x_190 = 0
x_201 - x_53 +  x_202 - x_65 +  x_199 - x_60 +  x_200 - x_55 = 0
x_203 - x_56 +  x_204 - x_61 +  x_205 - x_210 = 0
x_206 - x_212 +  x_207 - x_66 +  x_208 - x_58 = 0
x_209 - x_33 +  x_210 - x_205 +  x_211 - x_43 = 0
x_212 - x_206 +  x_213 - x_35 +  x_214 - x_48 = 0
x_217 - x_44 +  x_216 - x_46 +  x_218 - x_41 +  x_215 - x_32 = 0
x_220 - x_227 +  x_221 - x_45 +  x_219 - x_38 = 0
x_223 - x_47 +  x_222 - x_37 +  x_224 - x_229 = 0
x_227 - x_220 +  x_225 - x_14 +  x_226 - x_26 = 0
x_228 - x_15 +  x_230 - x_31 +  x_229 - x_224 = 0
x_233 - x_20 +  x_231 - x_25 +  x_232 - x_29 +  x_234 - x_17 = 0
x_235 - x_24 +  x_236 - x_238 +  x_237 - x_22 = 0
x_238 - x_236 +  x_239 - x_254 +  x_241 - x_147 +  x_240 - x_248 = 0
x_244 - x_251 +  x_243 - x_28 +  x_242 - x_19 = 0
x_245 - x_250 +  x_248 - x_240 +  x_246 - x_3 +  x_247 - x_23 = 0
x_250 - x_245 +  x_249 - x_255 +  x_251 - x_244 = 0
x_252 - x_1 +  x_253 - x_8 +  x_254 - x_239 = 0
x_256 - x_12 +  x_257 - x_4 +  x_255 - x_249 = 0
x_260 - x_2 +  x_258 - x_9 +  x_261 - x_7 +  x_259 - x_11 = 0
x_262 - x_10 - x_304 +  x_265 - x_13 +  x_263 - x_6 +  x_264 - x_5 = 0
x_267 - x_30 +  x_269 - x_18 +  x_266 - x_21 - x_305 +  x_268 - x_27 = 0
x_271 - x_42 +  x_270 - x_34 +  x_272 - x_49 +  x_273 - x_40 - x_306 = 0
x_274 - x_51 +  x_275 - x_57 +  x_276 - x_67 - x_307 +  x_277 - x_63 = 0
x_279 - x_73 - x_308 +  x_278 - x_69 +  x_280 - x_83 +  x_281 - x_79 = 0
x_285 - x_94 - x_309 +  x_283 - x_88 +  x_282 - x_97 +  x_284 - x_101 = 0
x_287 - x_109 +  x_286 - x_104 +  x_289 - x_113 +  x_288 - x_116 - x_310 = 0
x_291 - x_123 +  x_290 - x_119 +  x_299 = 0
x_293 - x_132 - x_300 +  x_292 - x_126 = 0
x_294 - x_133 +  x_295 - x_139 - x_301 = 0
x_296 - x_141 - x_302 +  x_297 - x_144 = 0
-x_303 +  x_298 - x_146 = 0
Bounds
x_1 >= 0
x_2 >= 0
x_3 >= 0
x_4 >= 0
x_5 >= 0
x_6 >= 0
x_7 >= 0
x_8 >= 0
x_9 >= 0
x_10 >= 0
x_11 >= 0
x_12 >= 0
x_13 >= 0
x_14 >= 0
x_15 >= 0
x_16 >= 0
x_17 >= 0
x_18 >= 0
x_19 >= 0
x_20 >= 0
x_21 >= 0
x_22 >= 0
x_23 >= 0
x_24 >= 0
x_25 >= 0
x_26 >= 0
x_27 >= 0
x_28 >= 0
x_29 >= 0
x_30 >= 0
x_31 >= 0
x_32 >= 0
x_33 >= 0
x_34 >= 0
x_35 >= 0
x_36 >= 0
x_37 >= 0
x_38 >= 0
x_39 >= 0
x_40 >= 0
x_41 >= 0
x_42 >= 0
x_43 >= 0
x_44 >= 0
x_45 >= 0
x_46 >= 0
x_47 >= 0
x_48 >= 0
x_49 >= 0
x_50 >= 0
x_51 >= 0
x_52 >= 0
x_53 >= 0
x_54 >= 0
x_55 >= 0
x_56 >= 0
x_57 >= 0
x_58 >= 0
x_59 >= 0
x_60 >= 0
x_61 >= 0
x_62 >= 0
x_63 >= 0
x_64 >= 0
x_65 >= 0
x_66 >= 0
x_67 >= 0
x_68 >= 0
x_69 >= 0
x_70 >= 0
x_71 >= 0
x_72 >= 0
x_73 >= 0
x_74 >= 0
x_75 >= 0
x_76 >= 0
x_77 >= 0
x_78 >= 0
x_79 >= 0
x_80 >= 0
x_81 >= 0
x_82 >= 0
x_83 >= 0
x_84 >= 0
x_85 >= 0
x_86 >= 0
x_87 >= 0
x_88 >= 0
x_89 >= 0
x_90 >= 0
x_91 >= 0
x_92 >= 0
x_93 >= 0
x_94 >= 0
x_95 >= 0
x_96 >= 0
x_97 >= 0
x_98 >= 0
x_99 >= 0
x_100 >= 0
x_101 >= 0
x_102 >= 0
x_103 >= 0
x_104 >= 0
x_105 >= 0
x_106 >= 0
x_107 >= 0
x_108 >= 0
x_109 >= 0
x_110 >= 0
x_111 >= 0
x_112 >= 0
x_113 >= 0
x_114 >= 0
x_115 >= 0
x_116 >= 0
x_117 >= 0
x_118 >= 0
x_119 >= 0
x_120 >= 0
x_121 >= 0
x_122 >= 0
x_123 >= 0
x_124 >= 0
x_125 >= 0
x_126 >= 0
x_127 >= 0
x_128 >= 0
x_129 >= 0
x_130 >= 0
x_131 >= 0
x_132 >= 0
x_133 >= 0
x_134 >= 0
x_135 >= 0
x_136 >= 0
x_137 >= 0
x_138 >= 0
x_139 >= 0
x_140 >= 0
x_141 >= 0
x_142 >= 0
x_143 >= 0
x_144 >= 0
x_145 >= 0
x_146 >= 0
x_147 >= 0
x_148 >= 0
x_149 >= 0
x_150 >= 0
x_151 >= 0
x_152 >= 0
x_153 >= 0
x_154 >= 0
x_155 >= 0
x_156 >= 0
x_157 >= 0
x_158 >= 0
x_159 >= 0
x_160 >= 0
x_161 >= 0
x_162 >= 0
x_163 >= 0
x_164 >= 0
x_165 >= 0
x_166 >= 0
x_167 >= 0
x_168 >= 0
x_169 >= 0
x_170 >= 0
x_171 >= 0
x_172 >= 0
x_173 >= 0
x_174 >= 0
x_175 >= 0
x_176 >= 0
x_177 >= 0
x_178 >= 0
x_179 >= 0
x_180 >= 0
x_181 >= 0
x_182 >= 0
x_183 >= 0
x_184 >= 0
x_185 >= 0
x_186 >= 0
x_187 >= 0
x_188 >= 0
x_189 >= 0
x_190 >= 0
x_191 >= 0
x_192 >= 0
x_193 >= 0
x_194 >= 0
x_195 >= 0
x_196 >= 0
x_197 >= 0
x_198 >= 0
x_199 >= 0
x_200 >= 0
x_201 >= 0
x_202 >= 0
x_203 >= 0
x_204 >= 0
x_205 >= 0
x_206 >= 0
x_207 >= 0
x_208 >= 0
x_209 >= 0
x_210 >= 0
x_211 >= 0
x_212 >= 0
x_213 >= 0
x_214 >= 0
x_215 >= 0
x_216 >= 0
x_217 >= 0
x_218 >= 0
x_219 >= 0
x_220 >= 0
x_221 >= 0
x_222 >= 0
x_223 >= 0
x_224 >= 0
x_225 >= 0
x_226 >= 0
x_227 >= 0
x_228 >= 0
x_229 >= 0
x_230 >= 0
x_231 >= 0
x_232 >= 0
x_233 >= 0
x_234 >= 0
x_235 >= 0
x_236 >= 0
x_237 >= 0
x_238 >= 0
x_239 >= 0
x_240 >= 0
x_241 >= 0
x_242 >= 0
x_243 >= 0
x_244 >= 0
x_245 >= 0
x_246 >= 0
x_247 >= 0
x_248 >= 0
x_249 >= 0
x_250 >= 0
x_251 >= 0
x_252 >= 0
x_253 >= 0
x_254 >= 0
x_255 >= 0
x_256 >= 0
x_257 >= 0
x_258 >= 0
x_259 >= 0
x_260 >= 0
x_261 >= 0
x_262 >= 0
x_263 >= 0
x_264 >= 0
x_265 >= 0
x_266 >= 0
x_267 >= 0
x_268 >= 0
x_269 >= 0
x_270 >= 0
x_271 >= 0
x_272 >= 0
x_273 >= 0
x_274 >= 0
x_275 >= 0
x_276 >= 0
x_277 >= 0
x_278 >= 0
x_279 >= 0
x_280 >= 0
x_281 >= 0
x_282 >= 0
x_283 >= 0
x_284 >= 0
x_285 >= 0
x_286 >= 0
x_287 >= 0
x_288 >= 0
x_289 >= 0
x_290 >= 0
x_291 >= 0
x_292 >= 0
x_293 >= 0
x_294 >= 0
x_295 >= 0
x_296 >= 0
x_297 >= 0
x_298 >= 0
x_299 >= 0
x_300 >= 0
x_301 >= 0
x_302 >= 0
x_303 >= 0
x_304 >= 0
x_305 >= 0
x_306 >= 0
x_307 >= 0
x_308 >= 0
x_309 >= 0
x_310 >= 0
General
Binaries
y_1
y_2
y_3
y_4
y_5
y_6
y_7
y_8
y_9
y_10
y_11
y_12
y_13
y_14
y_15
y_16
y_17
y_18
y_19
y_20
y_21
y_22
y_23
y_24
y_25
y_26
y_27
y_28
y_29
y_30
y_31
y_32
y_33
y_34
y_35
y_36
y_37
y_38
y_39
y_40
y_41
y_42
y_43
y_44
y_45
y_46
y_47
y_48
y_49
y_50
y_51
y_52
y_53
y_54
y_55
y_56
y_57
y_58
y_59
y_60
y_61
y_62
y_63
y_64
y_65
y_66
y_67
y_68
y_69
y_70
y_71
y_72
y_73
y_74
y_75
y_76
y_77
y_78
y_79
y_80
y_81
y_82
y_83
y_84
y_85
y_86
y_87
y_88
y_89
y_90
y_91
y_92
y_93
y_94
y_95
y_96
y_97
y_98
y_99
y_100
y_101
y_102
y_103
y_104
y_105
y_106
y_107
y_108
y_109
y_110
y_111
y_112
y_113
y_114
y_115
y_116
y_117
y_118
y_119
y_120
y_121
y_122
y_123
y_124
y_125
y_126
y_127
y_128
y_129
y_130
y_131
y_132
y_133
y_134
y_135
y_136
y_137
y_138
y_139
y_140
y_141
y_142
y_143
y_144
y_145
y_146
y_147
y_148
y_149
y_150
y_151
y_152
y_153
y_154
y_155
y_156
y_157
y_158
y_159
y_160
y_161
y_162
y_163
y_164
y_165
y_166
y_167
y_168
y_169
y_170
y_171
y_172
y_173
y_174
y_175
y_176
y_177
y_178
y_179
y_180
y_181
y_182
y_183
y_184
y_185
y_186
y_187
y_188
y_189
y_190
y_191
y_192
y_193
y_194
y_195
y_196
y_197
y_198
y_199
y_200
y_201
y_202
y_203
y_204
y_205
y_206
y_207
y_208
y_209
y_210
y_211
y_212
y_213
y_214
y_215
y_216
y_217
y_218
y_219
y_220
y_221
y_222
y_223
y_224
y_225
y_226
y_227
y_228
y_229
y_230
y_231
y_232
y_233
y_234
y_235
y_236
y_237
y_238
y_239
y_240
y_241
y_242
y_243
y_244
y_245
y_246
y_247
y_248
y_249
y_250
y_251
y_252
y_253
y_254
y_255
y_256
y_257
y_258
y_259
y_260
y_261
y_262
y_263
y_264
y_265
y_266
y_267
y_268
y_269
y_270
y_271
y_272
y_273
y_274
y_275
y_276
y_277
y_278
y_279
y_280
y_281
y_282
y_283
y_284
y_285
y_286
y_287
y_288
y_289
y_290
y_291
y_292
y_293
y_294
y_295
y_296
y_297
y_298
End
