data/solutions/exact100kb/instance068.txt
VALUE 1200255
1 71
5 63
6 64
8 63
9 58
12 58
13 53
16 53
17 48
20 48
21 43
24 43
25 38
28 38
30 80
30 32
33 34
32 34
33 36
37 66
34 38
28 41
41 43
24 46
46 48
20 51
51 53
16 56
56 58
12 61
61 63
5 64
66 68
8 67
6 68
67 69
69 71
1 73
5 74
9 75
13 76
17 77
21 78
25 79
32 81
33 82
36 83
37 84

